64
Time limit set to 60 seconds
Running CP solver
/home/omastto1/General-Optimization-Solver/src/solvers/mmrcpsp.py:42(stream:108:6): Warning: Cumulative expression 'pulse': height is zero, expression is zero everywhere.
                                                                                               VarCumulAtom_149 = pulse(task_0_mode_0, 0)
/home/omastto1/General-Optimization-Solver/src/solvers/mmrcpsp.py:42(stream:108:1253): Warning: Cumulative expression 'pulse': height is zero, expression is zero everywhere.
                                                                                                  VarCumulAtom_198 = pulse(task_17_mode_0, 0)
/home/omastto1/General-Optimization-Solver/src/solvers/mmrcpsp.py:42(stream:109:6): Warning: Cumulative expression 'pulse': height is zero, expression is zero everywhere.
                                                                                               VarCumulAtom_202 = pulse(task_0_mode_0, 0)
/home/omastto1/General-Optimization-Solver/src/solvers/mmrcpsp.py:42(stream:109:1255): Warning: Cumulative expression 'pulse': height is zero, expression is zero everywhere.
                                                                                                  VarCumulAtom_251 = pulse(task_17_mode_0, 0)
 ! --------------------------------------------------- CP Optimizer 20.1.0.0 --
 ! Minimization problem - 69 variables, 51 constraints
 ! TimeLimit            = 60
 ! Workers              = 14
 ! LogVerbosity         = Terse
 ! Initial process time : 0.00s (0.00s extraction + 0.00s propagation)
 !  . Log search space  : 162.8 (before), 162.8 (after)
 !  . Memory usage      : 754.6 kB (before), 754.6 kB (after)
 ! Using parallel search with 14 workers.
 ! ----------------------------------------------------------------------------
 !          Best Branches  Non-fixed    W       Branch decision
                        0         69                 -
 + New bound is 23
 ! Using iterative diving.
 ! Using temporal relaxation.
 *            39       47  0.52s        1      (gap is 41.03%)
 *            36      116  0.52s        1      (gap is 36.11%)
 *            33      184  0.52s        1      (gap is 30.30%)
 *            32      224  0.52s        1      (gap is 28.12%)
 *            31      294  0.52s        1      (gap is 25.81%)
 *            29      358  0.52s        1      (gap is 20.69%)
 *            28      412  0.52s        1      (gap is 17.86%)
 *            27      466  0.52s        1      (gap is 14.81%)
 *            23      965  0.52s        1      (gap is 0.00%)
 ! ----------------------------------------------------------------------------
 ! Search completed, 9 solutions found.
 ! Best objective         : 23 (optimal - effective tol. is 0)
 ! Best bound             : 23
 ! ----------------------------------------------------------------------------
 ! Number of branches     : 75190
 ! Number of fails        : 9234
 ! Total memory usage     : 9.7 MB (9.6 MB CP Optimizer + 0.1 MB Concert)
 ! Time spent in solve    : 0.61s (0.61s engine + 0.00s extraction)
 ! Search speed (br. / s) : 123262.3
 ! ----------------------------------------------------------------------------
task_0: (start=0, end=0, size=0, length=0)
Task 0 is scheduled in mode 0 from 0 to 0
task_1: (start=0, end=8, size=8, length=8)
Task 1 is scheduled in mode 2 from 0 to 8
task_2: (start=0, end=6, size=6, length=6)
Task 2 is scheduled in mode 2 from 0 to 6
task_3: (start=0, end=5, size=5, length=5)
Task 3 is scheduled in mode 1 from 0 to 5
task_4: (start=5, end=8, size=3, length=3)
Task 4 is scheduled in mode 1 from 5 to 8
task_5: (start=8, end=13, size=5, length=5)
Task 5 is scheduled in mode 0 from 8 to 13
task_6: (start=8, end=12, size=4, length=4)
Task 6 is scheduled in mode 1 from 8 to 12
task_7: (start=13, end=19, size=6, length=6)
Task 7 is scheduled in mode 1 from 13 to 19
task_8: (start=12, end=13, size=1, length=1)
Task 8 is scheduled in mode 0 from 12 to 13
task_9: (start=12, end=13, size=1, length=1)
Task 9 is scheduled in mode 0 from 12 to 13
task_10: (start=6, end=12, size=6, length=6)
Task 10 is scheduled in mode 2 from 6 to 12
task_11: (start=13, end=16, size=3, length=3)
Task 11 is scheduled in mode 0 from 13 to 16
task_12: (start=19, end=21, size=2, length=2)
Task 12 is scheduled in mode 1 from 19 to 21
task_13: (start=16, end=19, size=3, length=3)
Task 13 is scheduled in mode 1 from 16 to 19
task_14: (start=13, end=23, size=10, length=10)
Task 14 is scheduled in mode 2 from 13 to 23
task_15: (start=21, end=23, size=2, length=2)
Task 15 is scheduled in mode 0 from 21 to 23
task_16: (start=13, end=18, size=5, length=5)
Task 16 is scheduled in mode 1 from 13 to 18
task_17: (start=23, end=23, size=0, length=0)
Task 17 is scheduled in mode 0 from 23 to 23
Optimal solution found
Objective value: 23
Solution is optimal.
